p tdp 77 76
10 19
13 20
18 10
32 66
77 64
63 7
66 67
22 31
48 55
58 12
63 70
64 5
6 48
30 61
62 10
73 30
54 22
45 74
29 72
40 4
77 31
60 46
28 17
18 50
56 41
53 24
42 69
15 23
11 37
54 14
36 41
69 20
4 35
71 61
57 2
63 21
27 4
44 61
26 62
43 32
29 40
1 9
59 62
8 7
51 55
3 67
16 39
56 75
68 8
73 32
74 34
33 39
58 41
45 57
9 18
33 51
46 12
69 15
47 55
34 11
52 24
53 71
49 65
14 21
61 57
8 25
38 36
55 7
76 15
49 17
1 61
27 42
22 23
32 28
18 4
26 75
